39 7 166 124 82 41 197 153 109 65 21 176 130 84 37 190 142 94 47 196 146 96 46 193 140 88 34 181 126 71 16 160 103 48 186 127 67 8 147 83 22 158 93 28 163 97 27 159 89 18 148 74 2 128 55 177 101 20 139 61 179 98 11 123 42 152 63 172 79 187 92 195 102 199 100 192 87 182 73 165 54 138 29 114 191 69 145 24 104 167 35 107 162 25 80 136 189 43 86 132 171 10 49 75 111 129 150 168 178 185 194 188 180 169 151 131 112 76 50 13 156 108 52 184 110 32 135 51 137 33 115 183 44 90 125 161 175 1 198 154 118 68 19 122 45 119 6 14 5 141 149 26 155 157 117 85 81 58 144 56 164 9 0 64 17 38 116 113 31 91 66 99 12 57 53 105 36 70 173 120 170 72 30 59 133 3 62 174 106 40 121 77 95 134 143 78 4 15 23 60 

